
  12    4
  10   10   10   10

   0   0   0   0   0   2 2 3 
   2  10  10  10  10   3 7 5 4 
   4  10  10  10  10   2 7 4 
   4  10  10  10  10   2 10 6 
   9  10  10  10  10   2 10 6 
   5  10  10  10  10   3 11 9 8 
   8  10  10  10  10   3 10 9 8 
  10  10  10  10  10   1 12
   8  10  10  10  10   1 12
  10  10  10  10  10   1 12
   3  10  10  10  10   1 12
   0   0   0   0   0   0 
